This is Ipopt version 3.10.1, running with linear solver mumps.

Number of nonzeros in equality constraint Jacobian...:      141
Number of nonzeros in inequality constraint Jacobian.:        0
Number of nonzeros in Lagrangian Hessian.............:     2019

Total number of variables............................:       72
                     variables with only lower bounds:        0
                variables with lower and upper bounds:       72
                     variables with only upper bounds:        0
Total number of equality constraints.................:       47
Total number of inequality constraints...............:        0
        inequality constraints with only lower bounds:        0
   inequality constraints with lower and upper bounds:        0
        inequality constraints with only upper bounds:        0

iter    objective    inf_pr   inf_du lg(mu)  ||d||  lg(rg) alpha_du alpha_pr  ls
   0 -1.3440518e-03 1.00e-02 3.95e-03  -1.0 0.00e+00    -  0.00e+00 0.00e+00   0
   1 -1.3610556e-03 3.39e-10 1.30e-03  -1.7 2.00e-02    -  9.90e-01 1.00e+00h  1
   2 -1.3407260e-03 2.17e-10 3.25e-03  -2.5 3.10e-02    -  9.76e-01 1.00e+00f  1
   3 -1.5078679e-03 7.02e-12 9.91e-04  -3.8 3.85e-02    -  9.09e-01 1.00e+00f  1
   4 -2.7826795e-03 8.09e-13 1.46e-03  -5.7 8.35e-02  -2.0 7.77e-01 1.00e+00f  1
   5 -5.7012944e-03 1.51e-12 4.44e-03  -5.7 9.95e-02  -1.6 8.86e-01 9.14e-01f  1
   6 -7.3852944e-03 1.95e-12 4.32e-03  -5.7 6.33e-02  -1.1 1.00e+00 5.80e-01f  1
   7 -8.4863695e-03 1.34e-12 4.14e-03  -5.7 2.29e-02  -0.7 1.00e+00 9.10e-01f  1
   8 -9.8560276e-03 1.89e-12 1.05e-02  -5.7 1.00e-01  -1.2 1.00e+00 2.02e-01f  1
   9 -1.0227757e-02 1.81e-12 4.53e-03  -5.7 2.97e-02  -0.8 1.00e+00 1.78e-01f  1
iter    objective    inf_pr   inf_du lg(mu)  ||d||  lg(rg) alpha_du alpha_pr  ls
  10 -1.7749215e-02 4.30e-12 9.60e-03  -5.7 1.62e-01  -1.3 1.00e+00 5.44e-01f  1
  11 -1.8664315e-02 4.50e-12 1.46e-02  -5.7 8.22e-02  -0.8 1.00e+00 1.01e-01f  1
  12 -2.1225777e-02 3.71e-12 8.56e-03  -5.7 2.09e-02  -0.4 1.00e+00 1.00e+00f  1
  13 -2.2690056e-02 4.00e-12 2.60e-02  -5.7 1.15e-01  -0.9 1.00e+00 9.33e-02f  1
  14 -2.6460622e-02 4.73e-12 9.45e-03  -5.7 2.68e-02  -0.4 1.00e+00 1.00e+00f  1
  15 -2.7421302e-02 4.58e-12 4.66e-02  -5.7 1.73e-01  -0.9 1.00e+00 3.69e-02f  1
  16 -3.3845143e-02 3.28e-12 1.25e-02  -5.7 3.94e-02  -0.5 1.00e+00 1.00e+00f  1
  17 -4.2638235e-02 6.66e-12 1.24e-01  -5.7 5.15e-01  -1.0 9.12e-01 9.04e-02f  1
  18 -5.0158963e-02 7.57e-12 3.20e-02  -5.7 7.71e-02  -0.6 1.00e+00 4.77e-01f  1
  19 -5.4394102e-02 5.32e-12 1.84e-02  -5.7 2.65e-02  -0.1 1.00e+00 6.44e-01f  1
iter    objective    inf_pr   inf_du lg(mu)  ||d||  lg(rg) alpha_du alpha_pr  ls
  20 -6.5141565e-02 9.05e-12 3.98e-02  -5.7 1.33e-01  -0.6 1.00e+00 2.86e-01f  1
  21 -7.7182912e-02 1.44e-11 3.15e-02  -5.7 3.25e-02  -0.2 6.45e-01 1.00e+00f  1
  22 -9.1294129e-02 1.73e-11 2.77e-02  -5.7 1.80e-01  -0.7 2.90e-01 1.81e-01f  1
  23 -9.2368131e-02 1.63e-11 8.10e-02  -5.7 5.05e-02  -0.2 7.19e-01 5.02e-02f  1
  24 -1.0003190e-01 1.74e-11 6.46e-02  -5.7 4.31e-01  -0.7 1.52e-02 5.79e-02f  1
  25 -1.0255457e-01 1.75e-11 9.43e-02  -5.7 7.17e-02  -0.3 1.00e+00 8.53e-02f  1
  26 -1.1942973e-01 2.28e-11 7.82e-02  -5.7 1.65e+00  -0.8 1.54e-02 3.33e-02f  1
  27 -1.2120767e-01 2.35e-11 1.12e-01  -5.7 1.15e-01  -0.3 1.00e+00 3.60e-02f  1
  28 -1.3573004e-01 3.24e-11 1.46e-01  -5.7 7.05e-01  -0.8 1.25e-01 4.55e-02f  1
  29 -1.4886058e-01 4.01e-11 8.58e-02  -5.7 6.47e-02  -0.4 7.46e-01 3.84e-01f  1
iter    objective    inf_pr   inf_du lg(mu)  ||d||  lg(rg) alpha_du alpha_pr  ls
  30 -1.6659538e-01 5.32e-11 6.02e-02  -5.7 4.37e-01  -0.9 7.26e-03 1.27e-01f  1
  31 -1.7054764e-01 5.34e-11 1.18e-01  -5.7 1.15e-01  -0.4 8.67e-01 7.02e-02f  1
  32 -1.9852626e-01 7.50e-11 1.26e-01  -5.7 2.73e+00  -0.9 3.15e-02 2.47e-02f  1
  33 -2.2237978e-01 7.79e-11 8.78e-02  -5.7 1.80e-01  -0.5 2.07e-01 2.56e-01f  1
  34 -2.2978471e-01 1.06e-10 1.59e-01  -5.7 5.96e-02  -0.1 2.20e-02 2.07e-01f  1
  35 -2.6846643e-01 1.13e-10 1.32e-01  -5.7 3.92e-01  -0.5 2.09e-01 1.38e-01f  1
  36 -2.7990052e-01 8.19e-11 1.82e-01  -5.7 9.60e-02  -0.1 4.24e-01 1.38e-01f  1
  37 -3.3515684e-01 9.11e-11 1.41e-01  -5.7 1.46e+00  -0.6 1.58e-02 4.47e-02f  1
  38 -3.4572364e-01 8.63e-11 2.97e-01  -5.7 1.40e-01  -0.2 1.00e+00 8.34e-02f  1
  39 -3.5853268e-01 5.89e-11 1.01e-01  -5.7 4.34e-02   0.3 1.00e+00 3.00e-01f  1
iter    objective    inf_pr   inf_du lg(mu)  ||d||  lg(rg) alpha_du alpha_pr  ls
  40 -4.0388359e-01 5.14e-11 7.50e-02  -5.7 1.35e-01  -0.2 4.15e-01 3.31e-01f  1
  41 -4.2242949e-01 4.21e-11 1.53e-01  -5.7 4.09e-02   0.2 1.00e+00 5.13e-01f  1
  42 -5.4978060e-01 8.69e-11 1.40e-01  -5.7 2.23e-01  -0.3 3.58e-01 4.66e-01f  1
  43 -5.6374460e-01 9.83e-11 3.36e-01  -5.7 9.59e-02   0.2 8.07e-01 3.99e-01f  1
  44 -5.6709951e-01 9.86e-11 5.25e-01  -5.7 2.76e-01  -0.3 1.00e+00 9.88e-03f  1
  45 -6.9606981e-01 1.99e-10 4.90e-01  -5.7 5.59e-01    -  3.94e-01 3.13e-01f  1
  46 -7.5257798e-01 2.23e-10 2.80e-01  -5.7 2.94e-01  -0.8 1.81e-01 3.39e-01f  1
  47 -9.9913695e-01 3.71e-10 1.15e+00  -5.7 2.80e+01  -1.3 2.43e-02 1.16e-02f  1
  48 -9.9908897e-01 3.71e-10 4.47e-01  -5.7 9.89e-02    -  5.36e-01 4.88e-04f 12
  49 -9.9967539e-01 1.44e-10 9.61e-02  -5.7 4.39e-04    -  1.00e+00 7.12e-01f  1
iter    objective    inf_pr   inf_du lg(mu)  ||d||  lg(rg) alpha_du alpha_pr  ls
  50 -9.9980798e-01 4.50e-10 2.16e+00  -5.7 1.16e-04    -  6.73e-02 6.90e-01f  1
  51 -9.9986744e-01 4.89e-10 1.06e-01  -5.7 3.80e-05    -  9.12e-01 1.00e+00f  1
  52 -9.9986744e-01 1.33e-10 2.09e-11  -5.7 4.47e-06    -  1.00e+00 1.00e+00h  1
  53 -1.0000001e+00 1.95e-14 1.01e-08  -8.6 2.39e-05    -  1.00e+00 1.00e+00f  1
  54 -1.0000002e+00 1.60e-11 2.73e-15  -9.0 1.51e-08    -  1.00e+00 1.00e+00h  1

Number of Iterations....: 54

                                   (scaled)                 (unscaled)
Objective...............:  -1.0000001817766295e+00   -1.0000001817766295e+00
Dual infeasibility......:   2.7303080269244155e-15    2.7303080269244155e-15
Constraint violation....:   1.6027290605791222e-11    1.6027290605791222e-11
Complementarity.........:   1.3850777586043235e-09    1.3850777586043235e-09
Overall NLP error.......:   1.3850777586043235e-09    1.3850777586043235e-09


Number of objective function evaluations             = 66
Number of objective gradient evaluations             = 55
Number of equality constraint evaluations            = 66
Number of inequality constraint evaluations          = 0
Number of equality constraint Jacobian evaluations   = 1
Number of inequality constraint Jacobian evaluations = 0
Number of Lagrangian Hessian evaluations             = 54
Total CPU secs in IPOPT (w/o function evaluations)   =      0.150
Total CPU secs in NLP function evaluations           =      1.030

EXIT: Optimal Solution Found.
